FourierSAT_Github_AIJ/benchmarks/MAXSAT_benchmarks/3/bipartite/maxcut-140-630-0.7/maxcut-140-630-0.7-4.cnf
c strEdges: 189  randomEdges: 441 
c degrees:  2  3 
c girth: 10 max: 8.032766  
c Hgirth mixed MAXCUT instance
c generated from an undirected graph
c to solve unweighted MaxCut
p cnf 140 1260
81 101 0
-81 -101 0
81 118 0
-81 -118 0
81 7 0
-81 -7 0
122 89 0
-122 -89 0
122 72 0
-122 -72 0
122 84 0
-122 -84 0
131 69 0
-131 -69 0
131 83 0
-131 -83 0
131 125 0
-131 -125 0
70 136 0
-70 -136 0
70 40 0
-70 -40 0
70 114 0
-70 -114 0
49 95 0
-49 -95 0
49 128 0
-49 -128 0
49 3 0
-49 -3 0
22 34 0
-22 -34 0
22 7 0
-22 -7 0
22 90 0
-22 -90 0
93 114 0
-93 -114 0
93 18 0
-93 -18 0
93 74 0
-93 -74 0
64 45 0
-64 -45 0
64 34 0
-64 -34 0
64 61 0
-64 -61 0
133 102 0
-133 -102 0
133 4 0
-133 -4 0
53 18 0
-53 -18 0
53 14 0
-53 -14 0
44 94 0
-44 -94 0
44 79 0
-44 -79 0
44 43 0
-44 -43 0
97 36 0
-97 -36 0
97 75 0
-97 -75 0
97 91 0
-97 -91 0
99 126 0
-99 -126 0
99 18 0
-99 -18 0
121 83 0
-121 -83 0
121 26 0
-121 -26 0
121 91 0
-121 -91 0
98 3 0
-98 -3 0
98 55 0
-98 -55 0
98 96 0
-98 -96 0
67 138 0
-67 -138 0
67 135 0
-67 -135 0
67 77 0
-67 -77 0
112 103 0
-112 -103 0
112 2 0
-112 -2 0
112 8 0
-112 -8 0
5 74 0
-5 -74 0
5 76 0
-5 -76 0
5 103 0
-5 -103 0
47 14 0
-47 -14 0
47 109 0
-47 -109 0
47 94 0
-47 -94 0
129 116 0
-129 -116 0
129 39 0
-129 -39 0
129 27 0
-129 -27 0
17 65 0
-17 -65 0
17 103 0
-17 -103 0
17 102 0
-17 -102 0
20 42 0
-20 -42 0
20 69 0
-20 -69 0
20 134 0
-20 -134 0
35 29 0
-35 -29 0
35 8 0
-35 -8 0
35 37 0
-35 -37 0
104 106 0
-104 -106 0
104 28 0
-104 -28 0
104 83 0
-104 -83 0
92 33 0
-92 -33 0
92 9 0
-92 -9 0
21 4 0
-21 -4 0
21 61 0
-21 -61 0
23 91 0
-23 -91 0
23 48 0
-23 -48 0
87 2 0
-87 -2 0
87 42 0
-87 -42 0
60 76 0
-60 -76 0
60 139 0
-60 -139 0
60 125 0
-60 -125 0
25 11 0
-25 -11 0
25 95 0
-25 -95 0
25 80 0
-25 -80 0
140 28 0
-140 -28 0
140 39 0
-140 -39 0
140 59 0
-140 -59 0
73 27 0
-73 -27 0
73 120 0
-73 -120 0
73 48 0
-73 -48 0
137 48 0
-137 -48 0
137 113 0
-137 -113 0
32 96 0
-32 -96 0
32 130 0
-32 -130 0
32 29 0
-32 -29 0
111 59 0
-111 -59 0
111 65 0
-111 -65 0
54 72 0
-54 -72 0
54 109 0
-54 -109 0
54 101 0
-54 -101 0
15 26 0
-15 -26 0
15 90 0
-15 -90 0
57 66 0
-57 -66 0
57 116 0
-57 -116 0
57 126 0
-57 -126 0
51 43 0
-51 -43 0
51 100 0
-51 -100 0
51 28 0
-51 -28 0
108 68 0
-108 -68 0
108 33 0
-108 -33 0
41 125 0
-41 -125 0
41 66 0
-41 -66 0
132 10 0
-132 -10 0
132 77 0
-132 -77 0
132 68 0
-132 -68 0
86 79 0
-86 -79 0
86 31 0
-86 -31 0
71 31 0
-71 -31 0
71 135 0
-71 -135 0
71 12 0
-71 -12 0
6 130 0
-6 -130 0
6 94 0
-6 -94 0
6 134 0
-6 -134 0
13 128 0
-13 -128 0
13 10 0
-13 -10 0
13 4 0
-13 -4 0
38 139 0
-38 -139 0
38 107 0
-38 -107 0
38 34 0
-38 -34 0
50 113 0
-50 -113 0
50 100 0
-50 -100 0
50 68 0
-50 -68 0
85 135 0
-85 -135 0
85 76 0
-85 -76 0
16 55 0
-16 -55 0
16 45 0
-16 -45 0
82 8 0
-82 -8 0
82 118 0
-82 -118 0
127 7 0
-127 -7 0
127 106 0
-127 -106 0
123 105 0
-123 -105 0
123 136 0
-123 -136 0
123 26 0
-123 -26 0
56 107 0
-56 -107 0
56 138 0
-56 -138 0
56 89 0
-56 -89 0
88 39 0
-88 -39 0
88 95 0
-88 -95 0
88 42 0
-88 -42 0
124 84 0
-124 -84 0
124 36 0
-124 -36 0
124 59 0
-124 -59 0
52 120 0
-52 -120 0
52 14 0
-52 -14 0
52 45 0
-52 -45 0
110 134 0
-110 -134 0
110 105 0
-110 -105 0
110 138 0
-110 -138 0
19 37 0
-19 -37 0
19 113 0
-19 -113 0
19 80 0
-19 -80 0
63 118 0
-63 -118 0
63 116 0
-63 -116 0
63 75 0
-63 -75 0
46 100 0
-46 -100 0
46 139 0
-46 -139 0
119 40 0
-119 -40 0
119 106 0
-119 -106 0
119 33 0
-119 -33 0
24 9 0
-24 -9 0
24 79 0
-24 -79 0
24 102 0
-24 -102 0
115 109 0
-115 -109 0
115 128 0
-115 -128 0
78 61 0
-78 -61 0
78 37 0
-78 -37 0
30 90 0
-30 -90 0
30 31 0
-30 -31 0
30 11 0
-30 -11 0
62 80 0
-62 -80 0
62 136 0
-62 -136 0
62 65 0
-62 -65 0
1 77 0
-1 -77 0
1 27 0
-1 -27 0
58 75 0
-58 -75 0
58 9 0
-58 -9 0
58 55 0
-58 -55 0
117 12 0
-117 -12 0
117 126 0
-117 -126 0
117 3 0
-117 -3 0
124 114 0
-124 -114 0
39 100 0
-39 -100 0
94 84 0
-94 -84 0
66 90 0
-66 -90 0
117 61 0
-117 -61 0
73 3 0
-73 -3 0
102 42 0
-102 -42 0
64 66 0
-64 -66 0
88 27 0
-88 -27 0
129 25 0
-129 -25 0
28 12 0
-28 -12 0
85 88 0
-85 -88 0
23 88 0
-23 -88 0
20 43 0
-20 -43 0
32 26 0
-32 -26 0
53 80 0
-53 -80 0
41 76 0
-41 -76 0
54 6 0
-54 -6 0
25 111 0
-25 -111 0
49 6 0
-49 -6 0
115 106 0
-115 -106 0
135 118 0
-135 -118 0
138 11 0
-138 -11 0
64 58 0
-64 -58 0
117 55 0
-117 -55 0
98 16 0
-98 -16 0
122 11 0
-122 -11 0
38 96 0
-38 -96 0
110 103 0
-110 -103 0
64 6 0
-64 -6 0
93 20 0
-93 -20 0
43 80 0
-43 -80 0
104 100 0
-104 -100 0
57 7 0
-57 -7 0
89 120 0
-89 -120 0
67 26 0
-67 -26 0
110 96 0
-110 -96 0
22 52 0
-22 -52 0
127 18 0
-127 -18 0
81 59 0
-81 -59 0
54 82 0
-54 -82 0
60 26 0
-60 -26 0
56 46 0
-56 -46 0
6 100 0
-6 -100 0
31 55 0
-31 -55 0
21 24 0
-21 -24 0
36 29 0
-36 -29 0
89 59 0
-89 -59 0
129 126 0
-129 -126 0
112 33 0
-112 -33 0
64 59 0
-64 -59 0
24 42 0
-24 -42 0
56 110 0
-56 -110 0
63 1 0
-63 -1 0
17 46 0
-17 -46 0
96 90 0
-96 -90 0
70 29 0
-70 -29 0
86 12 0
-86 -12 0
56 10 0
-56 -10 0
103 66 0
-103 -66 0
45 83 0
-45 -83 0
86 139 0
-86 -139 0
17 54 0
-17 -54 0
108 19 0
-108 -19 0
115 9 0
-115 -9 0
38 62 0
-38 -62 0
123 18 0
-123 -18 0
85 89 0
-85 -89 0
58 2 0
-58 -2 0
82 1 0
-82 -1 0
23 103 0
-23 -103 0
6 1 0
-6 -1 0
67 14 0
-67 -14 0
45 74 0
-45 -74 0
110 100 0
-110 -100 0
44 10 0
-44 -10 0
99 47 0
-99 -47 0
45 76 0
-45 -76 0
125 61 0
-125 -61 0
56 103 0
-56 -103 0
106 40 0
-106 -40 0
16 114 0
-16 -114 0
125 77 0
-125 -77 0
106 139 0
-106 -139 0
101 59 0
-101 -59 0
68 107 0
-68 -107 0
39 9 0
-39 -9 0
122 70 0
-122 -70 0
36 37 0
-36 -37 0
24 48 0
-24 -48 0
73 41 0
-73 -41 0
17 13 0
-17 -13 0
102 8 0
-102 -8 0
98 74 0
-98 -74 0
127 24 0
-127 -24 0
53 100 0
-53 -100 0
62 2 0
-62 -2 0
127 29 0
-127 -29 0
38 52 0
-38 -52 0
78 94 0
-78 -94 0
108 110 0
-108 -110 0
97 14 0
-97 -14 0
23 25 0
-23 -25 0
98 118 0
-98 -118 0
50 89 0
-50 -89 0
120 134 0
-120 -134 0
94 76 0
-94 -76 0
62 45 0
-62 -45 0
111 80 0
-111 -80 0
6 78 0
-6 -78 0
21 25 0
-21 -25 0
46 105 0
-46 -105 0
17 136 0
-17 -136 0
131 112 0
-131 -112 0
47 18 0
-47 -18 0
60 123 0
-60 -123 0
124 135 0
-124 -135 0
70 4 0
-70 -4 0
122 50 0
-122 -50 0
23 13 0
-23 -13 0
54 51 0
-54 -51 0
65 107 0
-65 -107 0
87 28 0
-87 -28 0
64 13 0
-64 -13 0
64 107 0
-64 -107 0
98 100 0
-98 -100 0
51 124 0
-51 -124 0
98 102 0
-98 -102 0
6 55 0
-6 -55 0
133 44 0
-133 -44 0
60 106 0
-60 -106 0
98 65 0
-98 -65 0
138 139 0
-138 -139 0
115 113 0
-115 -113 0
4 77 0
-4 -77 0
92 84 0
-92 -84 0
48 118 0
-48 -118 0
99 15 0
-99 -15 0
122 52 0
-122 -52 0
32 117 0
-32 -117 0
2 66 0
-2 -66 0
137 72 0
-137 -72 0
51 55 0
-51 -55 0
70 125 0
-70 -125 0
83 65 0
-83 -65 0
67 27 0
-67 -27 0
121 103 0
-121 -103 0
137 56 0
-137 -56 0
122 38 0
-122 -38 0
122 117 0
-122 -117 0
97 20 0
-97 -20 0
126 76 0
-126 -76 0
17 35 0
-17 -35 0
21 28 0
-21 -28 0
69 55 0
-69 -55 0
132 11 0
-132 -11 0
136 83 0
-136 -83 0
96 107 0
-96 -107 0
31 120 0
-31 -120 0
76 31 0
-76 -31 0
99 124 0
-99 -124 0
86 114 0
-86 -114 0
133 8 0
-133 -8 0
112 63 0
-112 -63 0
49 59 0
-49 -59 0
97 86 0
-97 -86 0
117 4 0
-117 -4 0
70 120 0
-70 -120 0
133 36 0
-133 -36 0
89 27 0
-89 -27 0
60 25 0
-60 -25 0
123 72 0
-123 -72 0
44 104 0
-44 -104 0
89 139 0
-89 -139 0
121 124 0
-121 -124 0
24 136 0
-24 -136 0
13 127 0
-13 -127 0
62 106 0
-62 -106 0
49 55 0
-49 -55 0
45 3 0
-45 -3 0
122 132 0
-122 -132 0
31 107 0
-31 -107 0
93 134 0
-93 -134 0
73 83 0
-73 -83 0
42 31 0
-42 -31 0
45 72 0
-45 -72 0
45 100 0
-45 -100 0
33 61 0
-33 -61 0
57 89 0
-57 -89 0
25 43 0
-25 -43 0
137 117 0
-137 -117 0
86 56 0
-86 -56 0
83 9 0
-83 -9 0
128 40 0
-128 -40 0
140 55 0
-140 -55 0
62 9 0
-62 -9 0
119 45 0
-119 -45 0
126 66 0
-126 -66 0
46 80 0
-46 -80 0
86 95 0
-86 -95 0
7 77 0
-7 -77 0
22 91 0
-22 -91 0
92 101 0
-92 -101 0
112 59 0
-112 -59 0
112 48 0
-112 -48 0
67 75 0
-67 -75 0
112 46 0
-112 -46 0
66 109 0
-66 -109 0
14 72 0
-14 -72 0
140 94 0
-140 -94 0
95 2 0
-95 -2 0
122 12 0
-122 -12 0
104 8 0
-104 -8 0
115 40 0
-115 -40 0
62 74 0
-62 -74 0
53 84 0
-53 -84 0
60 83 0
-60 -83 0
108 135 0
-108 -135 0
70 2 0
-70 -2 0
22 11 0
-22 -11 0
136 75 0
-136 -75 0
22 58 0
-22 -58 0
67 17 0
-67 -17 0
129 136 0
-129 -136 0
73 96 0
-73 -96 0
101 74 0
-101 -74 0
111 91 0
-111 -91 0
78 100 0
-78 -100 0
1 76 0
-1 -76 0
93 65 0
-93 -65 0
124 77 0
-124 -77 0
47 19 0
-47 -19 0
56 42 0
-56 -42 0
64 33 0
-64 -33 0
86 115 0
-86 -115 0
67 82 0
-67 -82 0
127 116 0
-127 -116 0
47 2 0
-47 -2 0
23 130 0
-23 -130 0
86 102 0
-86 -102 0
60 10 0
-60 -10 0
67 102 0
-67 -102 0
47 16 0
-47 -16 0
10 100 0
-10 -100 0
108 136 0
-108 -136 0
53 82 0
-53 -82 0
71 56 0
-71 -56 0
103 109 0
-103 -109 0
52 110 0
-52 -110 0
88 94 0
-88 -94 0
73 54 0
-73 -54 0
38 61 0
-38 -61 0
73 15 0
-73 -15 0
60 39 0
-60 -39 0
16 102 0
-16 -102 0
18 48 0
-18 -48 0
54 57 0
-54 -57 0
98 24 0
-98 -24 0
91 120 0
-91 -120 0
21 111 0
-21 -111 0
104 86 0
-104 -86 0
94 65 0
-94 -65 0
67 83 0
-67 -83 0
10 109 0
-10 -109 0
25 4 0
-25 -4 0
81 127 0
-81 -127 0
96 80 0
-96 -80 0
71 75 0
-71 -75 0
6 125 0
-6 -125 0
50 134 0
-50 -134 0
95 7 0
-95 -7 0
22 102 0
-22 -102 0
111 50 0
-111 -50 0
34 102 0
-34 -102 0
94 3 0
-94 -3 0
114 68 0
-114 -68 0
44 99 0
-44 -99 0
41 77 0
-41 -77 0
2 79 0
-2 -79 0
93 61 0
-93 -61 0
81 120 0
-81 -120 0
114 102 0
-114 -102 0
93 128 0
-93 -128 0
138 28 0
-138 -28 0
46 94 0
-46 -94 0
137 46 0
-137 -46 0
108 66 0
-108 -66 0
60 124 0
-60 -124 0
81 12 0
-81 -12 0
21 71 0
-21 -71 0
122 133 0
-122 -133 0
112 139 0
-112 -139 0
119 28 0
-119 -28 0
46 79 0
-46 -79 0
85 110 0
-85 -110 0
86 42 0
-86 -42 0
25 106 0
-25 -106 0
44 137 0
-44 -137 0
95 3 0
-95 -3 0
111 132 0
-111 -132 0
57 10 0
-57 -10 0
72 90 0
-72 -90 0
20 15 0
-20 -15 0
14 113 0
-14 -113 0
35 50 0
-35 -50 0
93 80 0
-93 -80 0
82 136 0
-82 -136 0
29 109 0
-29 -109 0
103 26 0
-103 -26 0
3 59 0
-3 -59 0
81 93 0
-81 -93 0
121 1 0
-121 -1 0
46 130 0
-46 -130 0
97 15 0
-97 -15 0
22 48 0
-22 -48 0
138 100 0
-138 -100 0
24 72 0
-24 -72 0
48 120 0
-48 -120 0
41 10 0
-41 -10 0
21 48 0
-21 -48 0
92 102 0
-92 -102 0
60 138 0
-60 -138 0
132 71 0
-132 -71 0
88 59 0
-88 -59 0
70 50 0
-70 -50 0
81 125 0
-81 -125 0
49 132 0
-49 -132 0
1 103 0
-1 -103 0
131 70 0
-131 -70 0
44 113 0
-44 -113 0
91 11 0
-91 -11 0
60 3 0
-60 -3 0
44 73 0
-44 -73 0
131 106 0
-131 -106 0
62 72 0
-62 -72 0
56 31 0
-56 -31 0
119 134 0
-119 -134 0
49 20 0
-49 -20 0
49 45 0
-49 -45 0
47 128 0
-47 -128 0
94 138 0
-94 -138 0
82 30 0
-82 -30 0
62 48 0
-62 -48 0
22 55 0
-22 -55 0
17 104 0
-17 -104 0
33 59 0
-33 -59 0
104 36 0
-104 -36 0
11 59 0
-11 -59 0
6 58 0
-6 -58 0
58 106 0
-58 -106 0
137 78 0
-137 -78 0
81 103 0
-81 -103 0
140 130 0
-140 -130 0
57 8 0
-57 -8 0
64 97 0
-64 -97 0
5 41 0
-5 -41 0
83 8 0
-83 -8 0
91 139 0
-91 -139 0
54 11 0
-54 -11 0
132 34 0
-132 -34 0
81 36 0
-81 -36 0
57 28 0
-57 -28 0
101 29 0
-101 -29 0
5 84 0
-5 -84 0
101 14 0
-101 -14 0
36 118 0
-36 -118 0
140 11 0
-140 -11 0
112 72 0
-112 -72 0
107 61 0
-107 -61 0
138 105 0
-138 -105 0
128 84 0
-128 -84 0
31 77 0
-31 -77 0
101 79 0
-101 -79 0
34 84 0
-34 -84 0
76 10 0
-76 -10 0
20 101 0
-20 -101 0
99 2 0
-99 -2 0
58 135 0
-58 -135 0
96 7 0
-96 -7 0
123 101 0
-123 -101 0
28 40 0
-28 -40 0
98 33 0
-98 -33 0
51 2 0
-51 -2 0
47 10 0
-47 -10 0
36 80 0
-36 -80 0
29 72 0
-29 -72 0
63 14 0
-63 -14 0
62 114 0
-62 -114 0
58 89 0
-58 -89 0
15 9 0
-15 -9 0
41 18 0
-41 -18 0
32 82 0
-32 -82 0
99 39 0
-99 -39 0
44 26 0
-44 -26 0
103 107 0
-103 -107 0
133 33 0
-133 -33 0
133 128 0
-133 -128 0
81 102 0
-81 -102 0
116 10 0
-116 -10 0
64 56 0
-64 -56 0
120 40 0
-120 -40 0
83 39 0
-83 -39 0
51 90 0
-51 -90 0
99 139 0
-99 -139 0
48 61 0
-48 -61 0
11 8 0
-11 -8 0
70 135 0
-70 -135 0
45 109 0
-45 -109 0
96 43 0
-96 -43 0
81 25 0
-81 -25 0
127 3 0
-127 -3 0
93 110 0
-93 -110 0
51 41 0
-51 -41 0
126 9 0
-126 -9 0
114 37 0
-114 -37 0
122 48 0
-122 -48 0
64 86 0
-64 -86 0
78 3 0
-78 -3 0
133 47 0
-133 -47 0
44 132 0
-44 -132 0
111 94 0
-111 -94 0
101 72 0
-101 -72 0
41 85 0
-41 -85 0
123 77 0
-123 -77 0
31 100 0
-31 -100 0
3 61 0
-3 -61 0
49 33 0
-49 -33 0
82 128 0
-82 -128 0
127 74 0
-127 -74 0
125 128 0
-125 -128 0
140 58 0
-140 -58 0
33 28 0
-33 -28 0
104 2 0
-104 -2 0
74 10 0
-74 -10 0
95 91 0
-95 -91 0
14 26 0
-14 -26 0
132 12 0
-132 -12 0
98 47 0
-98 -47 0
4 12 0
-4 -12 0
88 117 0
-88 -117 0
45 37 0
-45 -37 0
