FourierSAT_Github_AIJ/res/fs_1core/maxcut-140-630-0.7-4.cnf.txt
o 197
o 185
